SCIP version 5.0.0 [precision: 8 byte] [memory: block] [mode: optimized] [LP solver: NONE] [GitHash: 3bbd232]
Copyright (C) 2002-2017 Konrad-Zuse-Zentrum fuer Informationstechnik Berlin (ZIB)

External codes: 
  Readline EditLine w  GNU library for command line editing (gnu.org/s/readline)
  CppAD 20160000.1     Algorithmic Differentiation of C++ algorithms developed by B. Bell (www.coin-or.org/CppAD)
  ZLIB 1.2.5           General purpose compression library by J. Gailly and M. Adler (zlib.net)
  GMP 6.1.2            GNU Multiple Precision Arithmetic Library developed by T. Granlund (gmplib.org)

user parameter file <scip.set> not found - using default parameters

read problem <../../Split_data/output/spectf/5/4_sample_spectf.logreg>
============

File name	:	../../Split_data/output/spectf/5/4_sample_spectf.logreg
Problem name 	:	4_sample_spectf
Number of data	:	214
Number of var	:	44
The given data has linear independence

[dim=1] time: 0.008492
[dim=2] time: 0.016944
[dim=3] time: 0.024973
[dim=4] time: 0.03238
[dim=5] time: 0.039757
[dim=6] time: 0.046301
[dim=7] time: 0.052558
[dim=8] time: 0.058825
[dim=9] Time of forward = 0.065075sec.
AIC: 142.207
k: 8

[dim=44] time: 0.03072
[dim=43] time: 0.049662
[dim=42] time: 0.068967
[dim=41] time: 0.085841
[dim=40] time: 0.110056
[dim=39] time: 0.123309
[dim=38] time: 0.134939
[dim=37] time: 0.149145
[dim=36] time: 0.163175
[dim=35] time: 0.175586
[dim=34] time: 0.188932
[dim=33] time: 0.201721
[dim=32] time: 0.213792
[dim=31] time: 0.22564
[dim=30] time: 0.235252
[dim=29] time: 0.245947
[dim=28] time: 0.255203
[dim=27] time: 0.268627
[dim=26] time: 0.275953
[dim=25] time: 0.282735
[dim=24] time: 0.289377
[dim=23] time: 0.298011
[dim=22] time: 0.306624
[dim=21] time: 0.31225
[dim=20] time: 0.317001
[dim=19] time: 0.322732
[dim=18] time: 0.328847
[dim=17] time: 0.334399
[dim=16] Time of backward = 0.338238sec.
AIC: 143.802
k: 17
